Route #1: 1 35 56 27 29 46 2 10 40 6 25 58 39 1 
Route #2: 1 60 9 51 33 20 47 18 48 34 1 
Route #3: 1 1 16 22 17 28 44 1 
Route #4: 1 11 31 57 12 4 26 55 50 1 
Route #5: 1 14 42 23 7 19 1 
Route #6: 1 52 13 30 37 59 24 21 1 
Route #7: 1 15 49 8 5 36 1 
Route #8: 1 3 38 41 1 
Route #9: 1 43 32 45 54 53 1 

Cost 1840.25
Time 0.5234


 * Another infos *

 Iterations: 61 Time: 0.5234 sec - 0.0087 min - 0.0001 horas
0.0000 h 0.0087 min
Problem dimension: 61
